9039
0 1 0 1 0 0 0 0 1 1 0 1 1 0 1 0 0 1 0 0 1 1 1 1 1 0 0 0 0 1
22 21 20 23 17 22 3 12 3 20 20 29 21 23 8 23 29 21 17 24 14 22 22 24 24 22 8 14 20 23 14 12 8 22 12 17 24 22 1 21 14 8 9 23 17 14 21 24 17 1 20 11 14 23 1 22 3 14 14 23 24 11 8 11 12 9 8 29 21 23